* #variable= 18 #constraint= 3 
+1 x1 -1 x10 +2 x2 -2 x11 +4 x3 -4 x12 +8 x4 -8 x13 +16 x5 -16 x14 +32 x6 -32 x15 +64 x7 -64 x16 +128 x8 -128 x17 +256 x9 -256 x18 = 0 ;
-1 x5 -1 x14 >= -1; 
+1 x5 +1 x14 >= 1; 
